20	5
0	10	9	5	7	4	3	10	1	8	6	2
1	4	18	13	15	19
2	3	15	19	11
3	3	19	13	15
4	3	18	17	16
5	3	16	13	11
6	3	16	12	13
7	3	19	17	12
8	3	17	14	16
9	3	11	16	17
10	2	11	17
11	1	12
12	2	20	14
13	2	17	20
14	1	21
15	2	20	21
16	2	19	15
17	1	21
18	2	14	21
19	1	21
20	1	21
21	0
0	0	0	0	0	0	0
1	7	2	2	1	1	4
2	10	4	2	5	3	2
3	6	3	2	1	3	4
4	7	2	5	2	2	3
5	6	5	2	4	5	1
6	7	4	4	1	3	5
7	5	4	5	3	5	4
8	7	5	4	2	2	5
9	9	4	2	1	3	1
10	2	1	5	4	5	1
11	2	5	2	2	4	5
12	5	5	5	1	3	4
13	5	2	4	5	3	5
14	7	2	1	5	2	5
15	6	5	4	3	3	4
16	7	2	4	3	4	4
17	1	4	5	1	2	4
18	2	5	2	3	5	3
19	3	2	1	5	2	4
20	2	5	2	3	1	4
21	0	0	0	0	0	0
20	19	15	19	18
